# Solution for model F-JSSP-SDST
# Objective value = 34533
B0(11) 1
B1(11) 1
B2(11) 1
B3(13) 1
B4(7) 1
B5(11) 1
B6(13) 1
B7(11) 1
B8(7) 1
B9(11) 1
B10(12) 1
B11(8) 1
B12(12) 1
B13(12) 1
B14(14) 1
B15(12) 1
B16(12) 1
B17(12) 1
B18(14) 1
B19(11) 1
B20(11) 1
B21(11) 1
B22(11) 1
B23(11) 1
B24(0) 0
B25(0) 0
B26(0) 0
B27(0) 0
B28(0) 0
B29(2) 1
B30(0) 0
B31(0) 0
B32(0) 0
B33(0) 0
B34(2) 0
B35(0) 0
B36(0) 0
B37(0) 0
B38(0) 0
B39(2) 0
B40(0) 0
B41(0) 0
B42(0) 0
B43(2) 0
B44(0) 0
B45(0) 0
B46(0) 0
B47(0) 0
B48(0) 0
B49(0) 0
B50(0) 0
B51(0) 0
B52(0) 0
B53(0) 0
B54(0) 0
B55(0) 0
B56(0) 0
B57(2) 0
B58(0) 0
B59(0) 0
B60(2) 0
B61(0) 0
B62(0) 0
B63(0) 0
B64(0) 0
B65(2) 0
B66(0) 0
B67(0) 0
B68(0) 0
B69(0) 0
B70(2) 0
B71(0) 0
B72(0) 0
B73(0) 0
B74(0) 0
B75(0) 0
B76(0) 0
B77(0) 0
B78(0) 0
B79(2) 1
B80(0) 0
B81(0) 0
B82(0) 0
B83(0) 0
B84(0) 0
B85(2) 0
B86(0) 0
B87(0) 0
B88(2) 0
B89(0) 0
B90(0) 0
B91(0) 0
B92(2) 1
B93(0) 0
B94(0) 0
B95(0) 0
B96(0) 0
B97(0) 0
B98(0) 0
B99(0) 0
B100(0) 0
B101(0) 0
B102(2) 1
B103(0) 0
B104(0) 0
B105(0) 0
B106(0) 0
B107(0) 0
B108(0) 0
B109(0) 0
B110(2) 0
B111(0) 0
B112(0) 0
B113(0) 0
B114(2) 0
B115(0) 0
B116(0) 0
B117(2) 1
B118(0) 0
B119(2) 1
B120(0) 0
B121(0) 0
B122(0) 0
B123(0) 0
B124(0) 0
B125(0) 0
B126(0) 0
B127(0) 0
B128(2) 1
B129(0) 0
B130(0) 0
B131(2) 1
B132(0) 0
B133(0) 0
B134(0) 0
B135(0) 0
B136(0) 0
B137(0) 0
B138(0) 0
B139(0) 0
B140(0) 0
B141(0) 0
B142(0) 0
B143(0) 0
B144(0) 0
B145(0) 0
B146(0) 0
B147(0) 0
B148(0) 0
B149(0) 0
B150(0) 0
B151(0) 0
B152(0) 0
B153(0) 0
B154(2) 0
B155(0) 0
B156(0) 0
B157(0) 0
B158(0) 0
B159(2) 0
B160(0) 0
B161(0) 0
B162(0) 0
B163(2) 0
B164(0) 0
B165(0) 0
B166(0) 0
B167(0) 0
B168(0) 0
B169(0) 0
B170(0) 0
B171(0) 0
B172(0) 0
B173(0) 0
B174(0) 0
B175(0) 0
B176(0) 0
B177(0) 0
B178(0) 0
B179(0) 0
B180(0) 0
B181(0) 0
B182(2) 0
B183(0) 0
B184(0) 0
B185(0) 0
B186(2) 0
B187(0) 0
B188(0) 0
B189(2) 0
B190(0) 0
B191(2) 0
B192(0) 0
B193(0) 0
B194(0) 0
B195(0) 0
B196(0) 0
B197(0) 0
B198(0) 0
B199(0) 0
B200(0) 0
B201(0) 0
B202(0) 0
B203(0) 0
B204(0) 0
B205(2) 0
B206(0) 0
B207(0) 0
B208(2) 0
B209(0) 0
B210(0) 0
B211(0) 0
B212(2) 0
B213(0) 0
B214(0) 0
B215(0) 0
B216(0) 0
B217(0) 0
B218(0) 0
B219(0) 0
B220(0) 0
B221(0) 0
B222(0) 0
B223(0) 0
B224(0) 0
B225(0) 0
B226(0) 0
B227(2) 0
B228(0) 0
B229(0) 0
B230(0) 0
B231(0) 0
B232(0) 0
B233(0) 0
B234(0) 0
B235(0) 0
B236(0) 0
B237(0) 0
B238(0) 0
B239(0) 0
B240(0) 0
B241(0) 0
B242(0) 0
B243(0) 0
B244(0) 0
B245(0) 0
B246(0) 0
B247(0) 0
B248(0) 0
B249(0) 0
B250(0) 0
B251(0) 0
B252(2) 0
B253(0) 0
B254(0) 0
B255(0) 0
B256(0) 0
B257(2) 0
B258(0) 0
B259(0) 0
B260(0) 0
B261(0) 0
B262(2) 0
B263(0) 0
B264(0) 0
B265(0) 0
B266(0) 0
B267(0) 0
B268(0) 0
B269(0) 0
B270(0) 0
B271(0) 0
B272(0) 0
B273(0) 0
B274(0) 0
B275(0) 0
B276(0) 0
B277(0) 0
B278(0) 0
B279(2) 0
B280(0) 0
B281(0) 0
B282(0) 0
B283(2) 1
B284(0) 0
B285(0) 0
B286(0) 0
B287(0) 0
B288(0) 0
B289(0) 0
B290(0) 0
B291(0) 0
B292(0) 0
B293(0) 0
B294(0) 0
B295(0) 0
B296(0) 0
B297(0) 0
B298(0) 0
B299(0) 0
B300(0) 0
B301(0) 0
B302(0) 0
B303(0) 0
B304(0) 0
B305(0) 0
B306(0) 0
B307(0) 0
B308(0) 0
B309(0) 0
B310(0) 0
B311(0) 0
B312(0) 0
B313(0) 0
B314(0) 0
B315(0) 0
B316(0) 0
B317(0) 0
B318(0) 0
B319(0) 0
B320(0) 0
B321(0) 0
B322(0) 0
B323(0) 0
B324(0) 0
B325(0) 0
B326(0) 0
B327(0) 0
B328(0) 0
B329(2) 0
B330(0) 0
B331(0) 0
B332(0) 0
B333(0) 0
B334(2) 1
B335(0) 0
B336(0) 0
B337(0) 0
B338(0) 0
B339(0) 0
B340(0) 0
B341(0) 0
B342(0) 0
B343(0) 0
B344(0) 0
B345(0) 0
B346(0) 0
B347(0) 0
B348(0) 0
B349(0) 0
B350(0) 0
B351(0) 0
B352(2) 1
B353(0) 0
B354(0) 0
B355(0) 0
B356(2) 1
B357(0) 0
B358(0) 0
B359(0) 0
B360(0) 0
B361(0) 0
B362(0) 0
B363(0) 0
B364(0) 0
B365(0) 0
B366(0) 0
B367(0) 0
B368(0) 0
B369(0) 0
B370(0) 0
B371(0) 0
B372(0) 0
B373(0) 0
B374(0) 0
B375(0) 0
B376(0) 0
B377(0) 0
B378(2) 0
B379(0) 0
B380(0) 0
B381(2) 1
B382(0) 0
B383(2) 1
B384(0) 0
B385(0) 0
B386(0) 0
B387(0) 0
B388(0) 0
B389(0) 0
B390(0) 0
B391(0) 0
B392(0) 0
B393(0) 0
B394(0) 0
B395(0) 0
B396(0) 0
B397(0) 0
B398(0) 0
B399(0) 0
B400(0) 0
B401(0) 0
B402(0) 0
B403(2) 1
B404(0) 0
B405(0) 0
B406(0) 0
B407(0) 0
B408(0) 0
B409(0) 0
B410(0) 0
B411(0) 0
B412(0) 0
B413(0) 0
B414(0) 0
B415(0) 0
B416(0) 0
B417(0) 0
B418(0) 0
B419(0) 0
B420(0) 0
B421(0) 0
B422(0) 0
B423(0) 0
B424(0) 0
B425(0) 0
B426(0) 0
B427(0) 0
B428(2) 1
B429(0) 0
B430(0) 0
B431(0) 0
B432(0) 0
B433(0) 0
B434(0) 0
B435(0) 0
B436(0) 0
B437(0) 0
B438(0) 0
B439(0) 0
B440(0) 0
B441(0) 0
B442(0) 0
B443(0) 0
B444(0) 0
B445(0) 0
B446(0) 0
B447(0) 0
B448(0) 0
B449(0) 0
B450(0) 0
B451(0) 0
B452(0) 0
B453(0) 0
B454(2) 1
B455(0) 0
B456(0) 0
B457(0) 0
B458(0) 0
B459(0) 0
B460(0) 0
B461(0) 0
B462(0) 0
B463(0) 0
B464(0) 0
B465(0) 0
B466(0) 0
B467(0) 0
B468(0) 0
B469(0) 0
B470(0) 0
B471(0) 0
B472(0) 0
B473(0) 0
B474(0) 0
B475(0) 0
B476(0) 0
B477(2) 1
B478(0) 0
B479(2) 1
B480(0) 0
B481(0) 0
B482(0) 0
B483(0) 0
B484(0) 0
B485(0) 0
B486(0) 0
B487(0) 0
B488(0) 0
B489(0) 0
B490(0) 0
B491(0) 0
B492(0) 0
B493(0) 0
B494(0) 0
B495(0) 0
B496(0) 0
B497(0) 0
B498(0) 0
B499(0) 0
B500(0) 0
B501(0) 0
B502(0) 0
B503(0) 0
B504(0) 0
B505(0) 0
B506(0) 0
B507(0) 0
B508(0) 0
B509(0) 0
B510(0) 0
B511(0) 0
B512(0) 0
B513(0) 0
B514(0) 0
B515(0) 0
B516(0) 0
B517(0) 0
B518(0) 0
B519(0) 0
B520(0) 0
B521(0) 0
B522(0) 0
B523(0) 0
B524(0) 0
B525(0) 0
B526(0) 0
B527(0) 0
B528(0) 0
B529(0) 0
B530(0) 0
B531(0) 0
B532(0) 0
B533(0) 0
B534(0) 0
B535(0) 0
B536(0) 0
B537(0) 0
B538(0) 0
B539(0) 0
B540(0) 0
B541(0) 0
B542(0) 0
B543(0) 0
B544(0) 0
B545(0) 0
B546(0) 0
B547(0) 0
B548(0) 0
B549(0) 0
B550(0) 0
B551(0) 0
B552(0) 0
B553(0) 0
B554(0) 0
B555(0) 0
B556(0) 0
B557(0) 0
B558(0) 0
B559(0) 0
B560(0) 0
B561(0) 0
B562(0) 0
B563(0) 0
B564(0) 0
B565(0) 0
B566(0) 0
B567(0) 0
B568(0) 0
B569(0) 0
B570(0) 0
B571(0) 0
B572(0) 0
B573(0) 0
B574(0) 0
B575(0) 0
B576(0) 0
B577(0) 0
B578(0) 0
B579(0) 0
B580(0) 0
B581(0) 0
B582(0) 0
B583(0) 0
B584(0) 0
B585(0) 0
B586(0) 0
B587(0) 0
B588(0) 0
B589(0) 0
B590(0) 0
B591(0) 0
B592(0) 0
B593(0) 0
B594(0) 0
B595(0) 0
B596(0) 0
B597(0) 0
B598(0) 0
B599(0) 0
I600(12) 1454
I601(13) 2894
I602(13) 7250
I603(15) 11553
I604(9) 12993
I605(12) 0
I606(15) 1440
I607(13) 2880
I608(9) 4320
I609(13) 5796
I610(12) 5825
I611(9) 7265
I612(13) 10149
I613(13) 14469
I614(15) 15909
I615(12) 7284
I616(13) 10181
I617(13) 14483
I618(15) 17369
I619(12) 2913
I620(13) 5793
I621(13) 7233
I622(13) 8673
I623(13) 10113
I624(1) 34533
